SCIP version 5.0.0 [precision: 8 byte] [memory: block] [mode: optimized] [LP solver: NONE] [GitHash: 3bbd232]
Copyright (C) 2002-2017 Konrad-Zuse-Zentrum fuer Informationstechnik Berlin (ZIB)

External codes: 
  Readline EditLine w  GNU library for command line editing (gnu.org/s/readline)
  CppAD 20160000.1     Algorithmic Differentiation of C++ algorithms developed by B. Bell (www.coin-or.org/CppAD)
  ZLIB 1.2.5           General purpose compression library by J. Gailly and M. Adler (zlib.net)
  GMP 6.1.2            GNU Multiple Precision Arithmetic Library developed by T. Granlund (gmplib.org)

user parameter file <scip.set> not found - using default parameters

read problem <../../Split_data/output/biodeg/7/3_sample_biodeg.logreg>
============

File name	:	../../Split_data/output/biodeg/7/3_sample_biodeg.logreg
Problem name 	:	3_sample_biodeg
Number of data	:	844
Number of var	:	41
The given data has linear dependence
1 sets of column vector are linearly dependent:
{ 19}, 

[dim=1] time: 0.029173
[dim=2] time: 0.059216
[dim=3] time: 0.101968
[dim=4] time: 0.144887
[dim=5] time: 0.185706
[dim=6] time: 0.213252
[dim=7] time: 0.238985
[dim=8] time: 0.266025
[dim=9] time: 0.295105
[dim=10] time: 0.32469
[dim=11] time: 0.351797
[dim=12] time: 0.380712
[dim=13] time: 0.405041
[dim=14] time: 0.431241
[dim=15] time: 0.454764
[dim=16] time: 0.478609
[dim=17] time: 0.492754
[dim=18] time: 0.506584
[dim=19] time: 0.520823
[dim=20] time: 0.534326
[dim=21] time: 0.548085
[dim=22] time: 0.563888
[dim=23] time: 0.600894
[dim=24] Time of forward = 0.612967sec.
AIC: 535.749
k: 23

[dim=40] time: 0.137447
[dim=39] time: 0.180282
[dim=38] time: 0.22764
[dim=37] time: 0.268733
[dim=36] time: 0.32031
[dim=35] time: 0.374852
[dim=34] time: 0.412569
[dim=33] time: 0.453445
[dim=32] time: 0.487844
[dim=31] time: 0.557821
[dim=30] time: 0.654444
[dim=29] time: 0.693669
[dim=28] time: 0.727901
[dim=27] time: 0.755426
[dim=26] time: 0.784395
[dim=25] time: 0.816453
[dim=24] time: 0.875515
[dim=23] time: 0.897863
[dim=22] Time of backward = 0.918111sec.
AIC: 533.754
k: 23
